StudentsNr = 10;
InstructorsNr = 51;
DaysNr = 1;
SlotsPerDay = 15;
AvailabilitySlotsLenght = 15;
RoomNr = 1;
ProgrammNr = 2;
DegreeNr = 1;
RolesNr = 1;
CoursesNr = 10;
InstructorsProgramm = [{1}, {1, 2}, {1, 2}, {1}, {2}, {1, 2}, {1}, {2}, {1, 2}, {1}, {1, 2}, {2}, {1}, {1}, {1}, {2}, {1, 2}, {2}, {1}, {1}, {2}, {1}, {1}, {1, 2}, {2}, {1}, {1, 2}, {2}, {1}, {1}, {2}, {1, 2}, {1, 2}, {1, 2}, {1}, {2}, {1}, {1}, {2}, {1}, {2}, {2}, {1, 2}, {2}, {2}, {1, 2}, {2}, {1}, {2}, {1}, {2}];
InstructorRolesPerProgramm = [|{1, 4, 6, 14, 15, 17, 19, 22, 23, 27, 29, 30, 33, 35, 38, 40, 43, 46, 48, 50}|{5, 6, 8, 12, 17, 27, 33, 39, 42, 43, 44, 45, 46, 51}|];
InstructorsAvailability = [|0, |1, |1, |1, |0, |1, |0, |0, |0, |1, |1, |1, |1, |1, |1, |0, |0, |0, |1, |0, |0, |0, |0, |1, |1, |1, |0, |1, |1, |0, |1, |0, |0, |1, |0, |0, |0, |1, |1, |0, |0, |1, |1, |0, |1, |1, |0, |0, |1, |0, |0|];
StudentsProgramm = [1, 2, 1, 1, 2, 1, 2, 2, 1, 2];
StudentsDegree = [1, 1, 1, 1, 1, 1, 1, 1, 1, 1];
StudentsSupervisorId = [7, 27, 2, 26, 6, 7, 46, 46, 32, 11];
StudentsCourseIds = [{}, {}, {}, {}, {}, {}, {}, {}, {}, {}];
StudentsAvailability = [|0, |1, |1, |0, |1, |1, |0, |1, |0, |0|];
TheoryticalMinCard = [1, 0, 1, 1, 0, 1, 0, 0, 1, 1];
CoursesInstructorIds = [{1, 4, 10, 15, 20, 26, 36, 37, 41, 47, 49, 51}, {1, 2, 4, 5, 9, 10, 16, 17, 23, 29, 46, 47}, {1, 3, 5, 8, 9, 10, 11, 12, 15, 17, 19, 20, 22, 23, 25, 26, 28, 30, 31, 33, 34, 35, 38, 39, 40, 41, 44, 46, 48}, {1, 2, 6, 12, 13, 23, 26, 30, 32, 34, 37, 40, 42}, {1, 3, 7, 10, 11, 17, 19, 20, 22, 24, 26, 35, 39, 40, 41, 44, 46, 49, 51}, {2, 3, 4, 5, 8, 9, 13, 17, 19, 32, 33, 35, 36, 37, 40, 44, 46, 50, 51}, {2, 4, 5, 6, 9, 11, 13, 15, 16, 17, 18, 19, 20, 22, 23, 24, 25, 27, 28, 29, 38, 39, 44, 45, 47, 51}, {2, 3, 4, 8, 16, 17, 18, 22, 31, 36, 37, 39, 42, 44, 45, 48, 50, 51}, {1, 2, 5, 7, 9, 10, 11, 15, 16, 17, 18, 20, 21, 23, 31, 35, 36, 39, 40, 44, 46, 48, 49}, {2, 3, 5, 6, 8, 10, 13, 15, 17, 19, 20, 26, 27, 28, 33, 34, 38, 43, 47, 49, 50, 51}];
RolesDemands = [10];
RolesContinuity = [];
ExamLen = [1, 1, 1, 1, 1, 1, 1, 1, 1, 1];
LunchTsMinLen = 0;
LunchStarts = [5..10];
SupervisorAvailable = 0;
OptimalLunchLenght = [2, 1];
OptimalStartTs = [0, 0];
OptimalFinishTs = [2, 15];
MinimizeRooms = 0;
RolesSoftContinuity = [|1|3|];
SameDegreeInRoom = 20;
Mergeability = 2;
